14390.0
1,12,20,26,29,46,64,74,85,89,96,106,113,120,147,157,163,164,169,203,204,211,233,242,265,268,271,273,274,292,294,302,307,323,343,375,391,422,423,432,472,475,479,483,490,498,505,524,538,546,562,567,574,575,583,584,589,597,606,607,637,659,662,663,665,668,675,694,721,724,739,757,758,764,767,833,838,842,849,851,852,855,883,895,909,921,926,938,946,952,958,959,986,988